setgridsize(64,64,1)
setcellsize(1e-9,1e-9,1e-9) 
setpbc(0,0,0)

Msat = 800e3
Aex = 13e-12
Dind = 3.0e-3
Ku1 = 0.8e6
AnisU = vector(0,0,1)
alpha = 0.02

m = neelskyrmion(-1, 1)
saveas(m, "skyrmion.ovf")
minimize()

Pol = 0.4
xi = 0.2

autosave(m,4e-10)
tableAutosave(1e-11)
tableAdd(ext_bubblepos)
run(1e-9)